50
    1   197   155
    2   397   396
    3   379   346
    4   402   427
    5     1     8
    6   191   165
    7   475   481
    8   136    95
    9   354   393
   10   361   322
   11   543   495
   12   221   179
   13    82    96
   14   230   256
   15   254   228
   16    59    28
   17   103   145
   18   157   188
   19   456   461
   20   437   390
   21   311   277
   22     1    11
   23   199   156
   24     1    14
   25   477   456
   26    91   136
   27   465   478
   28   247   295
   29   321   305
   30    99    87
   31    61    33
   32     5     7
   33   241   207
   34   287   289
   35   322   300
   36   278   237
   37   190   212
   38   322   280
   39   121   156
   40   116   106
   41   144   151
   42   227   277
   43   232   190
   44   319   273
   45   274   239
   46    19    58
   47    62   109
   48    64    29
   49   120   119
   50   263   252
9160
